1065
1065
1065
1065
1085
979
979
979
979
979
968
968
968
968
968
968
1041
1024
980
980
980
980
983
983
999
1023
917
917
1000
1000
1035
1016
988
965
945
945
945
945
1011
1011
1044
939
957
916
916
916
916
916
982
973
1009
976
1002
1041
992
992
992
994
948
984
1017
1017
949
860
860
860
955
955
955
955
955
955
957
911
870
955
881
963
963
963
783
783
867
905
947
947
925
947
947
987
980
818
818
912
910
912
912
941
887
941
941
941
1002
915
867
931
931
914
937
938
944
913
962
962
962
972
953
935
935
864
917
917
909
984
904
904
1009
1006
1009
997
988
988
914
937
802
802
802
802
802
802
802
802
802
919
935
935
925
855
839
839
923
877
877
950
950
899
899
900
922
777
777
871
954
954
954
954
946
932
925
925
925
922
922
985
985
952
977
959
959
977
977
935
889
849
849
849
935
921
921
921
884
884
921
921
887
887
960
960
960
986
986
971
903
898
903
903
903
944
979
981
981
947
947
914
914
914
904
904
904
922
922
948
948
934
860
832
832
832
832
832
919
953
953
891
891
891
891
891
866
866
844
844
844
844
844
844
844
844
923
923
923
941
951
951
951
951
951
951
903
903
927
927
820
832
887
887
910
910
910
972
961
900
909
927
927
917
917
927
927
915
810
810
883
883
867
883
848
908
908
894
894
894
894
894
894
894
894
866
900
879
879
879
879
901
901
901
901
901
901
845
845
845
845
845
845
845
910
940
940
940
940
929
929
814
814
814
814
814
814
814
814
909
921
875
875
799
762
762
799
846
868
829
829
829
814
829
822
822
814
785
820
819
807
898
898
898
889
889
889
876
876
876
768
751
751
733
751
719
754
754
754
754
754
754
818
818
836
867
867
845
842
845
845
845
893
893
844
864
876
886
798
798
798
820
818
818
818
793
793
793
805
805
805
832
832
787
832
832
832
845
853
853
852
818
813
813
813
742
813
813
813
809
813
813
765
765
765
765
765
813
877
877
877
882
847
877
883
823
845
848
848
805
791
791
791
791
690
690
847
833
845
845
845
855
824
824
824
821
824
823
823
823
812
770
798
775
808
855
748
684
684
757
757
757
707
690
836
804
796
761
761
761
761
761
757
757
768
780
780
727
780
780
763
741
701
701
701
701
701
718
780
762
762
751
650
749
762
756
762
797
812
786
786
786
786
786
789
709
709
727
760
760
645
673
673
673
713
713
713
732
720
720
720
720
704
697
643
697
713
728
728
728
681
681
719
724
705
702
702
702
702
724
720
720
679
679
679
679
707
720
720
661
661
661
677
677
699
695
692
695
673
673
695
686
686
673
686
686
674
656
656
656
656
645
648
641
672
630
555
555
555
555
554
554
554
554
554
555
637
616
630
655
616
559
578
578
578
578
578
578
578
578
507
512
578
544
544
544
544
532
544
544
544
492
492
492
549
495
495
470
542
542
542
542
549
548
548
548
486
486
467
467
467
486
486
486
486
486
541
541
526
541
515
486
486
463
463
463
463
543
578
549
549
549
549
541
493
493
486
486
499
436
486
521
473
436
436
436
436
469
469
469
491
491
490
490
490
490
490
490
490
499
499
499
499
499
499
470
499
437
437
437
437
437
437
437
489
489
489
489
490
490
490
490
459
459
459
467
459
459
459
459
459
459
459
459
459
459
459
459
459
459
468
474
474
474
474
474
486
486
477
474
474
465
465
459
459
458
458
459
459
459
473
457
473
465
465
422
422
422
480
480
490
435
430
430
435
435
465
465
465
465
486
486
457
405
405
405
405
405
405
405
405
405
405
405
405
405
405
405
405
405
405
405
405
405
405
405
405
405
405
435
435
461
461
468
426
426
426
423
344
344
423
442
447
451
423
399
399
399
402
407
407
407
407
407
422
422
422
437
381
381
381
381
381
381
381
423
423
423
381
422
422
422
422
422
422
422
422
422
422
426
417
388
388
373
373
373
373
373
373
373
373
373
373
373
373
373
373
373
373
373
373
373
365
365
373
373
373
373
373
373
373
373
373
373
373
373
373
383
383
383
383
383
383
383
392
395
397
392
392
392
392
373
373
373
373
373
392
392
392
392
392
392
392
392
366
366
366
366
366
366
366
366
366
366
366
366
366
366
369
369
369
379
379
379
379
373
373
373
373
373
373
373
373
373
366
366
366
366
356
356
356
356
366
366
366
366
389
389
366
366
366
366
366
366
366
366
366
366
366
366
366
366
366
366
366
366
366
366
366
366
366
366
366
356
366
366
366
366
366
366
366
366
366
366
366
366
366
366
366
366
366
366
366
366
366
366
366
366
366
366
366
366
366
366
366
366
366
366
366
366
366
366
366
366
366
366
366
366
366
366
366
366
366
366
366
366
366
366
366
366
366
366
366
366
366
366
366
366
366
366
366
366
366
366
366
366
366
366
366
366
366
366
366
366
366
366
366
366
362
362
362
362
362
366
366
366
366
366
366
366
366
366
366
366
366
366
366
366
366
366
366
366
366
366
366
366
366
366
366
366
366
366
366
366
366
366
366
366
366
366
366
366
366
366
366
366
366
366
366
366
366
366
366
366
366
366
366
366
366
366
366
366
366
366
366
366
366
366
366
366
366
366
366
366
366
366
366
366
366
366
366
366
366
366
366
366
366
366
366
366
366
366
366
366
366
366
366
366
366
366
366
366
366
366
366
366
366
366
366
366
366
366
366
366
366
366
366
366
366
366
366
366
366
366
366
366
366
366
366
366
366
366
366
366
366
366
366
366
366
366
366
366
366
366
366
366
366
366
366
366
366
366
366
366
366
366
366
366
366
366
366
366
366
366
366
366
366
366
366
366
366
366
366
366
366
366
366
366
366
366
366
366
366
366
366
366
366
366
366
366
366
366
366
366
366
366
366
366
366
366
366
366
366
366
366
366
366
366
366
366
366
366
366
366
366
366
366
366
366
366
366
366
366
366
366
366
366
366
366
366
366
366
366
366
366
366
366
366
366
366
366
366
366
366
366
366
366
366
366
366
366
366
366
366
366
366
366
366
366
366
366
366
366
366
366
366
366
366
366
366
366
366
366
366
366
366
366
366
366
366
366
366
366
366
366
366
366
366
366
366
366
366
366
366
366
366
366
366
366
366
366
366
366
366
366
366
366
366
366
366
366
366
366
366
366
366
366
366
366
366
366
366
366
366
366
366
366
366
366
366
366
366
366
366
366
366
366
366
366
366
366
366
366
366
366
366
366
366
366
366
366
366
366
366
366
366
366
366
366
366
366
366
366
366
366
366
366
366
366
366
366
366
366
366
366
366
366
366
366
366
366
366
366
366
366
366
366
366
366
366
366
366
366
366
366
366
366
366
366
366
366
366
366
366
366
366
366
366
366
366
366
366
366
366
366
366
366
366
366
366
366
366
366
366
366
366
366
366
366
366
366
366
366
366
366
366
366
366
366
366
366
366
366
366
366
366
366
366
366
366
366
366
366
366
366
366
366
366
366
366
366
366
366
366
366
366
366
366
366
366
366
366
366
366
366
366
366
366
366
366
366
366
366
366
366
366
366
366
366
366
366
366
366
366
366
366
366
366
366
366
366
366
366
366
366
366
366
366
366
366
366
366
366
366
366
366
366
366
366
366
366
366
366
366
366
366
366
366
366
366
366
366
366
366
366
366
366
366
366
366
366
366
366
366
366
366
366
366
366
366
366
366
366
366
366
366
366
366
366
366
366
366
366
366
366
366
366
366
366
366
366
366
366
366
366
366
366
366
366
366
366
366
366
366
366
366
366
366
366
366
366
366
366
366
366
366
366
366
366
366
366
366
366
366
366
366
366
366
366
366
366
366
366
366
366
366
366
366
366
366
366
366
366
366
366
366
366
366
366
366
366
366
366
366
366
366
366
366
366
366
366
366
366
366
366
366
366
366
366
366
366
366
366
366
366
366
366
366
362
362
366
366
366
366
366
366
366
366
366
366
366
366
366
366
366
366
366
366
366
366
366
366
366
366
366
366
366
366
366
366
366
366
366
366
366
366
366
366
366
366
366
366
366
366
366
366
366
366
366
366
366
366
366
366
366
366
366
366
366
366
366
366
366
366
366
366
366
366
366
366
366
366
366
366
366
366
366
366
366
366
366
366
366
366
366
366
366
366
366
366
366
366
366
366
366
366
366
366
366
366
366
366
366
366
366
366
366
366
366
366
366
366
366
366
366
366
366
366
366
366
366
366
366
366
366
366
366
366
366
366
366
366
366
366
366
366
366
366
366
366
366
366
366
366
366
366
366
366
366
366
366
366
366
366
366
366
366
366
366
366
366
366
366
366
366
366
366
366
366
366
366
366
366
366
366
366
366
366
366
366
366
366
366
366
366
366
366
366
366
366
366
366
366
366
366
366
366
366
366
366
366
366
366
366
366
366
366
366
366
366
366
366
366
366
366
366
366
366
366
366
366
366
366
366
366
366
366
366
366
366
366
366
366
366
366
366
366
366
366
366
366
366
366
366
366
366
366
366
366
366
366
366
366
366
366
366
366
366
366
366
366
366
366
366
366
366
366
366
